(set-logic HORN)
(set-info :source |
  Benchmark: test_safe_2019/termination/partial.2.ml
  Generated by MoCHi
|)
(set-info :status unknown)
(declare-fun |fail_102[0:0]| ( Int) Bool)
(declare-fun |f_without_checking_94[0:11][0:4][0:0]| ( Bool  Int  Int  Int  Bool  Int  Int  Int  Bool  Int  Int  Bool  Int  Int  Int  Bool) Bool)
(declare-fun |f_without_checking_94[0:11][0:3]| ( Bool  Int  Int  Int  Bool  Int  Int  Int  Bool  Int  Int  Bool  Int  Int  Int) Bool)
(declare-fun |f_without_checking_94[0:10]| ( Bool  Int  Int  Int  Bool  Int  Int  Int  Bool  Int  Int) Bool)
(assert (not (exists ((x0 Int)) (|fail_102[0:0]| x0))))
(assert (forall ((x0 Int)(x4 Int)(var26 Bool)(var27 Int)(var28 Int)(var29 Bool)(var30 Int)(var31 Int)(x3 Int)(var32 Bool)(var33 Int)(var34 Int)) (=> (and (|f_without_checking_94[0:10]| var26 var27 var28 x4 var29 var30 var31 x3 var32 var33 var34) (and (|f_without_checking_94[0:11][0:4][0:0]| var26 var27 var28 x4 var29 var30 var31 x3 var32 var33 var34 true x4 x3 x4 true) (<= x4 0))) (|fail_102[0:0]| x0))))
(assert (forall ((x5 Bool)(x6 Int)(x7 Int)(x8 Int)(x9 Bool)(x10 Int)(x11 Int)(x12 Int)(x13 Bool)(x14 Int)(x15 Int)(x0 Bool)(x1 Int)(x2 Int)(x3 Int)(x4 Bool)(var35 Int)) (=> (and (|f_without_checking_94[0:10]| x5 x6 x7 x8 x9 x10 x11 x12 x13 x14 x15) (and (|f_without_checking_94[0:11][0:3]| false 0 0 var35 false 0 0 0 false 0 0 x0 x1 x2 x3) (and (= x15 0) (and (= x14 0) (and (= x12 0) (and (= x11 0) (and (= x10 0) (and (= x7 0) (and (= x6 0) (and (not x13) (and (not x9) (and (not x5) (= x4 (> x3 0)))))))))))))) (|f_without_checking_94[0:11][0:4][0:0]| x5 x6 x7 x8 x9 x10 x11 x12 x13 x14 x15 x0 x1 x2 x3 x4))))
(assert (forall ((x4 Bool)(x5 Int)(x6 Int)(x7 Int)(x8 Bool)(x9 Int)(x10 Int)(x11 Int)(x12 Bool)(x13 Int)(x14 Int)(x3 Bool)(x2 Int)(x0 Int)(x1 Int)) (=> (and (|f_without_checking_94[0:10]| x4 x5 x6 x7 x8 x9 x10 x11 x12 x13 x14) (and (= x0 x11) (and (= x2 x1) (and (= x2 x7) x3)))) (|f_without_checking_94[0:11][0:3]| x4 x5 x6 x7 x8 x9 x10 x11 x12 x13 x14 x3 x2 x0 x1))))
(assert (forall ((x7 Bool)(x0 Int)(x1 Int)(x10 Int)(x8 Bool)(x2 Int)(x3 Int)(x4 Int)(x9 Bool)(x5 Int)(x6 Int)) (=> (and (= x0 0) (and (= x1 0) (and (= x2 0) (and (= x3 0) (and (= x4 0) (and (= x5 0) (and (= x6 0) (and (not x7) (and (not x8) (not x9)))))))))) (|f_without_checking_94[0:10]| x7 x0 x1 x10 x8 x2 x3 x4 x9 x5 x6))))
(check-sat)
(get-model)
(exit)
